p cnf 28 70
a 23 0
e 1 2 3 4 5 6 7 8 9 10 11 12 13 14 15 16 17 18 19 20 21 22 24 25 26 27 28 0
3 1 0
3 -2 0
-1 2 -3 0
6 4 0
6 -5 0
-4 5 -6 0
-7 1 0
-7 1 0
-1 7 0
-9 -7 0
-9 -8 0
7 8 9 0
-10 8 0
-10 1 0
-8 -1 10 0
-9 10 -11 0
9 -10 -11 0
-9 -10 11 0
9 10 11 0
-12 6 0
-12 -11 0
-6 11 12 0
-13 3 0
-13 12 0
-3 -12 13 0
-15 14 0
-15 -7 0
-14 7 15 0
17 16 0
17 14 0
-16 -14 -17 0
-18 15 0
-18 17 0
-15 -17 18 0
-20 -19 0
-20 -7 0
19 7 20 0
21 7 0
21 9 0
-7 -9 -21 0
-22 -20 0
-22 21 0
20 -21 22 0
10 8 -23 0
-10 -8 -23 0
10 -8 23 0
-10 8 23 0
24 -22 0
24 -23 0
22 23 -24 0
-25 -18 0
-25 -24 0
18 24 25 0
-26 -13 0
-26 25 0
13 -25 26 0
27 7 0
27 -16 0
-7 16 -27 0
-26 -27 -28 0
26 27 -28 0
-26 27 28 0
26 -27 28 0
14 7 25 -1 9 10 -8 0
-26 17 -24 -3 -1 9 -20 21 0
20 -1 -21 27 3 11 0
-4 23 -14 -13 -2 -1 0
6 -21 8 28 0
3 17 -10 8 1 18 -16 -19 0
28 0
